NAME : kroC100.23820.tour
COMMENT : Cost = 7945_23820
COMMENT : Found by LKH [Keld Helsgaun] Thu Nov 16 17:24:53 2017
TYPE : TOUR
DIMENSION : 102
TOUR_SECTION
1
53
24
32
61
26
7
82
78
9
37
16
51
63
44
66
48
84
11
52
87
96
97
81
45
33
100
57
36
10
92
19
99
93
49
18
29
46
101
79
20
64
55
42
75
22
8
17
25
90
34
58
98
88
28
39
38
71
56
43
5
86
50
72
83
62
54
6
47
31
67
13
15
102
40
12
4
60
14
74
69
3
73
59
41
89
21
70
76
94
95
91
23
35
2
68
30
77
80
65
27
85
-1
EOF
